p cnf 430 1488
-191 180 0
-191 -36 0
-191 89 0
-191 128 0
-191 -88 0
191 -180 36 -89 -128 88 0
-192 -72 0
-192 84 0
-192 156 0
-192 20 0
-192 146 0
192 72 -84 -156 -20 -146 0
-193 -69 0
-193 112 0
-193 -137 0
-193 -153 0
-193 -179 0
193 69 -112 137 153 179 0
-194 97 0
-194 152 0
-194 54 0
-194 100 0
-194 -116 0
194 -97 -152 -54 -100 116 0
-195 12 0
-195 152 0
-195 -29 0
-195 163 0
-195 96 0
195 -12 -152 29 -163 -96 0
191 192 193 194 195 0
-196 185 0
-196 -190 0
-196 22 0
-196 136 0
-196 4 0
196 -185 190 -22 -136 -4 0
-197 153 0
-197 -115 0
-197 91 0
-197 -158 0
-197 -169 0
197 -153 115 -91 158 169 0
-198 -50 0
-198 -44 0
-198 12 0
-198 -159 0
-198 -143 0
198 50 44 -12 159 143 0
-199 109 0
-199 -146 0
-199 -56 0
-199 44 0
-199 -37 0
199 -109 146 56 -44 37 0
-200 181 0
-200 153 0
-200 -173 0
-200 -141 0
-200 182 0
200 -181 -153 173 141 -182 0
196 197 198 199 200 0
-201 -93 0
-201 105 0
-201 -60 0
-201 -167 0
-201 -119 0
201 93 -105 60 167 119 0
-202 -153 0
-202 130 0
-202 39 0
-202 -135 0
-202 -24 0
202 153 -130 -39 135 24 0
-203 -170 0
-203 -124 0
-203 148 0
-203 -113 0
-203 -156 0
203 170 124 -148 113 156 0
-204 84 0
-204 -169 0
-204 174 0
-204 -138 0
-204 -10 0
204 -84 169 -174 138 10 0
-205 109 0
-205 86 0
-205 -119 0
-205 7 0
-205 78 0
205 -109 -86 119 -7 -78 0
201 202 203 204 205 0
-206 82 0
-206 -51 0
-206 103 0
-206 57 0
-206 159 0
206 -82 51 -103 -57 -159 0
-207 -126 0
-207 105 0
-207 -160 0
-207 -78 0
-207 129 0
207 126 -105 160 78 -129 0
-208 -47 0
-208 8 0
-208 141 0
-208 -54 0
-208 108 0
208 47 -8 -141 54 -108 0
-209 61 0
-209 -99 0
-209 -158 0
-209 -35 0
-209 11 0
209 -61 99 158 35 -11 0
-210 -22 0
-210 -109 0
-210 182 0
-210 -5 0
-210 48 0
210 22 109 -182 5 -48 0
206 207 208 209 210 0
-211 180 0
-211 -60 0
-211 170 0
-211 -51 0
-211 -3 0
211 -180 60 -170 51 3 0
-212 149 0
-212 111 0
-212 180 0
-212 -41 0
-212 -167 0
212 -149 -111 -180 41 167 0
-213 159 0
-213 -26 0
-213 7 0
-213 153 0
-213 -65 0
213 -159 26 -7 -153 65 0
-214 21 0
-214 -111 0
-214 -34 0
-214 -63 0
-214 -11 0
214 -21 111 34 63 11 0
-215 -190 0
-215 22 0
-215 -12 0
-215 -185 0
-215 -15 0
215 190 -22 12 185 15 0
211 212 213 214 215 0
-216 -69 0
-216 -42 0
-216 -24 0
-216 -80 0
-216 -172 0
216 69 42 24 80 172 0
-217 85 0
-217 -73 0
-217 -105 0
-217 28 0
-217 -132 0
217 -85 73 105 -28 132 0
-218 144 0
-218 188 0
-218 113 0
-218 135 0
-218 -46 0
218 -144 -188 -113 -135 46 0
-219 -132 0
-219 -150 0
-219 -67 0
-219 -68 0
-219 140 0
219 132 150 67 68 -140 0
-220 190 0
-220 10 0
-220 -82 0
-220 -146 0
-220 -92 0
220 -190 -10 82 146 92 0
216 217 218 219 220 0
-221 -83 0
-221 61 0
-221 155 0
-221 16 0
-221 107 0
221 83 -61 -155 -16 -107 0
-222 157 0
-222 -35 0
-222 127 0
-222 97 0
-222 -172 0
222 -157 35 -127 -97 172 0
-223 -65 0
-223 124 0
-223 -154 0
-223 -152 0
-223 135 0
223 65 -124 154 152 -135 0
-224 -170 0
-224 168 0
-224 -91 0
-224 90 0
-224 74 0
224 170 -168 91 -90 -74 0
-225 -111 0
-225 -129 0
-225 -120 0
-225 62 0
-225 37 0
225 111 129 120 -62 -37 0
221 222 223 224 225 0
-226 -153 0
-226 146 0
-226 151 0
-226 142 0
-226 -163 0
226 153 -146 -151 -142 163 0
-227 -154 0
-227 101 0
-227 -70 0
-227 -42 0
-227 -165 0
227 154 -101 70 42 165 0
-228 -104 0
-228 -98 0
-228 161 0
-228 -180 0
-228 -19 0
228 104 98 -161 180 19 0
-229 93 0
-229 147 0
-229 82 0
-229 159 0
-229 76 0
229 -93 -147 -82 -159 -76 0
-230 1 0
-230 86 0
-230 -46 0
-230 -6 0
-230 17 0
230 -1 -86 46 6 -17 0
226 227 228 229 230 0
-231 -28 0
-231 63 0
-231 -41 0
-231 -11 0
-231 127 0
231 28 -63 41 11 -127 0
-232 145 0
-232 -184 0
-232 -89 0
-232 183 0
-232 180 0
232 -145 184 89 -183 -180 0
-233 -71 0
-233 16 0
-233 -37 0
-233 -111 0
-233 -15 0
233 71 -16 37 111 15 0
-234 168 0
-234 141 0
-234 -102 0
-234 99 0
-234 111 0
234 -168 -141 102 -99 -111 0
-235 175 0
-235 -187 0
-235 -188 0
-235 -48 0
-235 -172 0
235 -175 187 188 48 172 0
231 232 233 234 235 0
-236 -67 0
-236 43 0
-236 -119 0
-236 -45 0
-236 139 0
236 67 -43 119 45 -139 0
-237 -110 0
-237 -155 0
-237 75 0
-237 5 0
-237 -181 0
237 110 155 -75 -5 181 0
-238 -188 0
-238 168 0
-238 117 0
-238 -55 0
-238 80 0
238 188 -168 -117 55 -80 0
-239 -107 0
-239 73 0
-239 47 0
-239 -120 0
-239 -98 0
239 107 -73 -47 120 98 0
-240 -19 0
-240 158 0
-240 91 0
-240 12 0
-240 -83 0
240 19 -158 -91 -12 83 0
236 237 238 239 240 0
-241 8 0
-241 -54 0
-241 -72 0
-241 -9 0
-241 -118 0
241 -8 54 72 9 118 0
-242 109 0
-242 -138 0
-242 10 0
-242 179 0
-242 51 0
242 -109 138 -10 -179 -51 0
-243 2 0
-243 -149 0
-243 -48 0
-243 -150 0
-243 -17 0
243 -2 149 48 150 17 0
-244 -40 0
-244 -3 0
-244 39 0
-244 175 0
-244 -64 0
244 40 3 -39 -175 64 0
-245 149 0
-245 -79 0
-245 100 0
-245 -47 0
-245 129 0
245 -149 79 -100 47 -129 0
241 242 243 244 245 0
-246 103 0
-246 -151 0
-246 -74 0
-246 152 0
-246 149 0
246 -103 151 74 -152 -149 0
-247 97 0
-247 155 0
-247 -13 0
-247 3 0
-247 5 0
247 -97 -155 13 -3 -5 0
-248 -175 0
-248 -88 0
-248 13 0
-248 133 0
-248 4 0
248 175 88 -13 -133 -4 0
-249 -36 0
-249 -76 0
-249 -119 0
-249 -186 0
-249 83 0
249 36 76 119 186 -83 0
-250 -63 0
-250 68 0
-250 139 0
-250 178 0
-250 24 0
250 63 -68 -139 -178 -24 0
246 247 248 249 250 0
-251 76 0
-251 13 0
-251 22 0
-251 -96 0
-251 172 0
251 -76 -13 -22 96 -172 0
-252 -121 0
-252 92 0
-252 -70 0
-252 -96 0
-252 -13 0
252 121 -92 70 96 13 0
-253 121 0
-253 -33 0
-253 -142 0
-253 122 0
-253 129 0
253 -121 33 142 -122 -129 0
-254 -76 0
-254 60 0
-254 -186 0
-254 -128 0
-254 -170 0
254 76 -60 186 128 170 0
-255 -3 0
-255 94 0
-255 -127 0
-255 189 0
-255 12 0
255 3 -94 127 -189 -12 0
251 252 253 254 255 0
-256 -12 0
-256 -133 0
-256 -109 0
-256 56 0
-256 -72 0
256 12 133 109 -56 72 0
-257 -112 0
-257 115 0
-257 92 0
-257 96 0
-257 6 0
257 112 -115 -92 -96 -6 0
-258 -40 0
-258 -152 0
-258 -41 0
-258 -34 0
-258 -128 0
258 40 152 41 34 128 0
-259 181 0
-259 118 0
-259 151 0
-259 52 0
-259 -135 0
259 -181 -118 -151 -52 135 0
-260 135 0
-260 -187 0
-260 114 0
-260 52 0
-260 74 0
260 -135 187 -114 -52 -74 0
256 257 258 259 260 0
-261 -127 0
-261 38 0
-261 188 0
-261 -70 0
-261 130 0
261 127 -38 -188 70 -130 0
-262 186 0
-262 -58 0
-262 84 0
-262 122 0
-262 25 0
262 -186 58 -84 -122 -25 0
-263 -132 0
-263 -171 0
-263 42 0
-263 -162 0
-263 -101 0
263 132 171 -42 162 101 0
-264 178 0
-264 -66 0
-264 1 0
-264 151 0
-264 172 0
264 -178 66 -1 -151 -172 0
-265 13 0
-265 -117 0
-265 89 0
-265 168 0
-265 -4 0
265 -13 117 -89 -168 4 0
261 262 263 264 265 0
-266 -131 0
-266 86 0
-266 9 0
-266 181 0
-266 -22 0
266 131 -86 -9 -181 22 0
-267 -33 0
-267 122 0
-267 -155 0
-267 -94 0
-267 -105 0
267 33 -122 155 94 105 0
-268 38 0
-268 153 0
-268 41 0
-268 -68 0
-268 -115 0
268 -38 -153 -41 68 115 0
-269 -178 0
-269 -146 0
-269 6 0
-269 152 0
-269 7 0
269 178 146 -6 -152 -7 0
-270 -112 0
-270 95 0
-270 126 0
-270 -98 0
-270 83 0
270 112 -95 -126 98 -83 0
266 267 268 269 270 0
-271 -34 0
-271 -174 0
-271 38 0
-271 -125 0
-271 176 0
271 34 174 -38 125 -176 0
-272 81 0
-272 28 0
-272 -185 0
-272 183 0
-272 -134 0
272 -81 -28 185 -183 134 0
-273 -99 0
-273 10 0
-273 90 0
-273 -177 0
-273 -1 0
273 99 -10 -90 177 1 0
-274 99 0
-274 -160 0
-274 -180 0
-274 -65 0
-274 87 0
274 -99 160 180 65 -87 0
-275 -48 0
-275 -16 0
-275 86 0
-275 -177 0
-275 22 0
275 48 16 -86 177 -22 0
271 272 273 274 275 0
-276 -32 0
-276 -175 0
-276 80 0
-276 29 0
-276 -65 0
276 32 175 -80 -29 65 0
-277 58 0
-277 94 0
-277 -88 0
-277 29 0
-277 -95 0
277 -58 -94 88 -29 95 0
-278 49 0
-278 101 0
-278 -56 0
-278 -94 0
-278 -36 0
278 -49 -101 56 94 36 0
-279 -117 0
-279 16 0
-279 87 0
-279 91 0
-279 -174 0
279 117 -16 -87 -91 174 0
-280 -46 0
-280 -190 0
-280 -10 0
-280 120 0
-280 -41 0
280 46 190 10 -120 41 0
276 277 278 279 280 0
-281 83 0
-281 -113 0
-281 -66 0
-281 46 0
-281 173 0
281 -83 113 66 -46 -173 0
-282 161 0
-282 -66 0
-282 164 0
-282 139 0
-282 124 0
282 -161 66 -164 -139 -124 0
-283 118 0
-283 93 0
-283 -111 0
-283 -42 0
-283 -28 0
283 -118 -93 111 42 28 0
-284 146 0
-284 29 0
-284 -138 0
-284 -129 0
-284 -182 0
284 -146 -29 138 129 182 0
-285 -141 0
-285 -174 0
-285 32 0
-285 16 0
-285 -80 0
285 141 174 -32 -16 80 0
281 282 283 284 285 0
-286 -179 0
-286 138 0
-286 41 0
-286 -62 0
-286 -81 0
286 179 -138 -41 62 81 0
-287 -131 0
-287 163 0
-287 -129 0
-287 -137 0
-287 -174 0
287 131 -163 129 137 174 0
-288 -148 0
-288 35 0
-288 162 0
-288 144 0
-288 113 0
288 148 -35 -162 -144 -113 0
-289 17 0
-289 101 0
-289 143 0
-289 186 0
-289 -136 0
289 -17 -101 -143 -186 136 0
-290 127 0
-290 -119 0
-290 -169 0
-290 -45 0
-290 -68 0
290 -127 119 169 45 68 0
286 287 288 289 290 0
-291 -178 0
-291 -22 0
-291 -21 0
-291 -172 0
-291 -79 0
291 178 22 21 172 79 0
-292 92 0
-292 -93 0
-292 -11 0
-292 -146 0
-292 82 0
292 -92 93 11 146 -82 0
-293 -157 0
-293 -147 0
-293 -56 0
-293 28 0
-293 -153 0
293 157 147 56 -28 153 0
-294 172 0
-294 117 0
-294 -38 0
-294 -29 0
-294 130 0
294 -172 -117 38 29 -130 0
-295 -47 0
-295 -55 0
-295 -119 0
-295 103 0
-295 -22 0
295 47 55 119 -103 22 0
291 292 293 294 295 0
-296 -118 0
-296 45 0
-296 60 0
-296 187 0
-296 108 0
296 118 -45 -60 -187 -108 0
-297 138 0
-297 -187 0
-297 -15 0
-297 14 0
-297 11 0
297 -138 187 15 -14 -11 0
-298 -171 0
-298 83 0
-298 112 0
-298 111 0
-298 7 0
298 171 -83 -112 -111 -7 0
-299 -60 0
-299 37 0
-299 -76 0
-299 34 0
-299 7 0
299 60 -37 76 -34 -7 0
-300 132 0
-300 27 0
-300 18 0
-300 -53 0
-300 -39 0
300 -132 -27 -18 53 39 0
296 297 298 299 300 0
-301 -175 0
-301 -95 0
-301 -187 0
-301 174 0
-301 -37 0
301 175 95 187 -174 37 0
-302 186 0
-302 -5 0
-302 -47 0
-302 -28 0
-302 -9 0
302 -186 5 47 28 9 0
-303 85 0
-303 76 0
-303 98 0
-303 4 0
-303 -147 0
303 -85 -76 -98 -4 147 0
-304 135 0
-304 -161 0
-304 163 0
-304 146 0
-304 -102 0
304 -135 161 -163 -146 102 0
-305 -29 0
-305 19 0
-305 -52 0
-305 100 0
-305 -91 0
305 29 -19 52 -100 91 0
301 302 303 304 305 0
-306 158 0
-306 30 0
-306 -38 0
-306 -81 0
-306 76 0
306 -158 -30 38 81 -76 0
-307 -166 0
-307 -54 0
-307 185 0
-307 -163 0
-307 -64 0
307 166 54 -185 163 64 0
-308 4 0
-308 -132 0
-308 128 0
-308 -164 0
-308 64 0
308 -4 132 -128 164 -64 0
-309 123 0
-309 72 0
-309 70 0
-309 -177 0
-309 2 0
309 -123 -72 -70 177 -2 0
-310 171 0
-310 95 0
-310 -144 0
-310 157 0
-310 -119 0
310 -171 -95 144 -157 119 0
306 307 308 309 310 0
-311 81 0
-311 -187 0
-311 184 0
-311 183 0
-311 -119 0
311 -81 187 -184 -183 119 0
-312 18 0
-312 178 0
-312 130 0
-312 89 0
-312 -2 0
312 -18 -178 -130 -89 2 0
-313 -106 0
-313 -114 0
-313 119 0
-313 92 0
-313 153 0
313 106 114 -119 -92 -153 0
-314 -187 0
-314 -16 0
-314 -129 0
-314 48 0
-314 20 0
314 187 16 129 -48 -20 0
-315 147 0
-315 22 0
-315 31 0
-315 -148 0
-315 -162 0
315 -147 -22 -31 148 162 0
311 312 313 314 315 0
-316 107 0
-316 52 0
-316 -31 0
-316 -94 0
-316 166 0
316 -107 -52 31 94 -166 0
-317 -164 0
-317 66 0
-317 -119 0
-317 -167 0
-317 -120 0
317 164 -66 119 167 120 0
-318 49 0
-318 -85 0
-318 -14 0
-318 -47 0
-318 32 0
318 -49 85 14 47 -32 0
-319 81 0
-319 79 0
-319 97 0
-319 95 0
-319 137 0
319 -81 -79 -97 -95 -137 0
-320 -25 0
-320 7 0
-320 120 0
-320 103 0
-320 101 0
320 25 -7 -120 -103 -101 0
316 317 318 319 320 0
-321 72 0
-321 -51 0
-321 -89 0
-321 -84 0
-321 -165 0
321 -72 51 89 84 165 0
-322 -137 0
-322 -28 0
-322 -30 0
-322 -2 0
-322 151 0
322 137 28 30 2 -151 0
-323 118 0
-323 -67 0
-323 -20 0
-323 -69 0
-323 135 0
323 -118 67 20 69 -135 0
-324 170 0
-324 -91 0
-324 103 0
-324 -17 0
-324 -96 0
324 -170 91 -103 17 96 0
-325 -105 0
-325 130 0
-325 126 0
-325 -40 0
-325 25 0
325 105 -130 -126 40 -25 0
321 322 323 324 325 0
-326 -34 0
-326 -78 0
-326 25 0
-326 65 0
-326 -150 0
326 34 78 -25 -65 150 0
-327 -76 0
-327 121 0
-327 73 0
-327 -154 0
-327 -17 0
327 76 -121 -73 154 17 0
-328 147 0
-328 108 0
-328 142 0
-328 171 0
-328 -39 0
328 -147 -108 -142 -171 39 0
-329 -21 0
-329 -98 0
-329 66 0
-329 -82 0
-329 104 0
329 21 98 -66 82 -104 0
-330 46 0
-330 -118 0
-330 -31 0
-330 55 0
-330 -114 0
330 -46 118 31 -55 114 0
326 327 328 329 330 0
-331 -3 0
-331 77 0
-331 -32 0
-331 145 0
-331 92 0
331 3 -77 32 -145 -92 0
-332 -44 0
-332 -66 0
-332 188 0
-332 -81 0
-332 129 0
332 44 66 -188 81 -129 0
-333 -95 0
-333 31 0
-333 -74 0
-333 120 0
-333 72 0
333 95 -31 74 -120 -72 0
-334 -141 0
-334 -57 0
-334 127 0
-334 177 0
-334 -181 0
334 141 57 -127 -177 181 0
-335 -75 0
-335 92 0
-335 -165 0
-335 -38 0
-335 -10 0
335 75 -92 165 38 10 0
331 332 333 334 335 0
-336 -26 0
-336 -148 0
-336 -13 0
-336 67 0
-336 -172 0
336 26 148 13 -67 172 0
-337 -138 0
-337 177 0
-337 -153 0
-337 8 0
-337 174 0
337 138 -177 153 -8 -174 0
-338 -108 0
-338 82 0
-338 -78 0
-338 52 0
-338 182 0
338 108 -82 78 -52 -182 0
-339 146 0
-339 143 0
-339 10 0
-339 119 0
-339 124 0
339 -146 -143 -10 -119 -124 0
-340 -62 0
-340 -98 0
-340 -154 0
-340 -10 0
-340 -48 0
340 62 98 154 10 48 0
336 337 338 339 340 0
-341 70 0
-341 12 0
-341 45 0
-341 185 0
-341 13 0
341 -70 -12 -45 -185 -13 0
-342 82 0
-342 153 0
-342 118 0
-342 -170 0
-342 107 0
342 -82 -153 -118 170 -107 0
-343 121 0
-343 76 0
-343 -184 0
-343 -32 0
-343 91 0
343 -121 -76 184 32 -91 0
-344 124 0
-344 -139 0
-344 -91 0
-344 -159 0
-344 112 0
344 -124 139 91 159 -112 0
-345 63 0
-345 -13 0
-345 58 0
-345 64 0
-345 120 0
345 -63 13 -58 -64 -120 0
341 342 343 344 345 0
-346 159 0
-346 117 0
-346 -68 0
-346 -169 0
-346 -190 0
346 -159 -117 68 169 190 0
-347 51 0
-347 -101 0
-347 -1 0
-347 -70 0
-347 -26 0
347 -51 101 1 70 26 0
-348 -28 0
-348 -134 0
-348 -1 0
-348 -149 0
-348 169 0
348 28 134 1 149 -169 0
-349 47 0
-349 188 0
-349 72 0
-349 54 0
-349 -67 0
349 -47 -188 -72 -54 67 0
-350 -7 0
-350 -65 0
-350 -128 0
-350 -74 0
-350 -108 0
350 7 65 128 74 108 0
346 347 348 349 350 0
-351 152 0
-351 80 0
-351 79 0
-351 -97 0
-351 -142 0
351 -152 -80 -79 97 142 0
-352 -27 0
-352 -22 0
-352 139 0
-352 -181 0
-352 184 0
352 27 22 -139 181 -184 0
-353 19 0
-353 172 0
-353 5 0
-353 -95 0
-353 -79 0
353 -19 -172 -5 95 79 0
-354 -81 0
-354 -139 0
-354 -117 0
-354 64 0
-354 1 0
354 81 139 117 -64 -1 0
-355 90 0
-355 -32 0
-355 -149 0
-355 18 0
-355 -72 0
355 -90 32 149 -18 72 0
351 352 353 354 355 0
-356 82 0
-356 -133 0
-356 185 0
-356 -165 0
-356 -122 0
356 -82 133 -185 165 122 0
-357 -63 0
-357 20 0
-357 -2 0
-357 175 0
-357 37 0
357 63 -20 2 -175 -37 0
-358 184 0
-358 -68 0
-358 175 0
-358 8 0
-358 152 0
358 -184 68 -175 -8 -152 0
-359 142 0
-359 -130 0
-359 -54 0
-359 -13 0
-359 136 0
359 -142 130 54 13 -136 0
-360 125 0
-360 -59 0
-360 155 0
-360 -68 0
-360 148 0
360 -125 59 -155 68 -148 0
356 357 358 359 360 0
-361 159 0
-361 12 0
-361 -103 0
-361 -109 0
-361 100 0
361 -159 -12 103 109 -100 0
-362 -35 0
-362 -63 0
-362 -59 0
-362 -62 0
-362 -83 0
362 35 63 59 62 83 0
-363 -70 0
-363 140 0
-363 14 0
-363 27 0
-363 165 0
363 70 -140 -14 -27 -165 0
-364 -53 0
-364 33 0
-364 141 0
-364 145 0
-364 181 0
364 53 -33 -141 -145 -181 0
-365 80 0
-365 -120 0
-365 -138 0
-365 -114 0
-365 -157 0
365 -80 120 138 114 157 0
361 362 363 364 365 0
-366 -44 0
-366 -133 0
-366 -70 0
-366 120 0
-366 -185 0
366 44 133 70 -120 185 0
-367 78 0
-367 179 0
-367 32 0
-367 166 0
-367 -96 0
367 -78 -179 -32 -166 96 0
-368 -58 0
-368 -172 0
-368 171 0
-368 190 0
-368 165 0
368 58 172 -171 -190 -165 0
-369 -120 0
-369 -126 0
-369 -145 0
-369 -65 0
-369 -76 0
369 120 126 145 65 76 0
-370 40 0
-370 65 0
-370 -1 0
-370 115 0
-370 -124 0
370 -40 -65 1 -115 124 0
366 367 368 369 370 0
-371 -80 0
-371 3 0
-371 -114 0
-371 -91 0
-371 -150 0
371 80 -3 114 91 150 0
-372 171 0
-372 104 0
-372 -17 0
-372 -185 0
-372 181 0
372 -171 -104 17 185 -181 0
-373 -165 0
-373 119 0
-373 -163 0
-373 -126 0
-373 187 0
373 165 -119 163 126 -187 0
-374 128 0
-374 5 0
-374 -44 0
-374 57 0
-374 106 0
374 -128 -5 44 -57 -106 0
-375 -41 0
-375 -53 0
-375 132 0
-375 133 0
-375 -48 0
375 41 53 -132 -133 48 0
371 372 373 374 375 0
-376 21 0
-376 -130 0
-376 68 0
-376 -186 0
-376 49 0
376 -21 130 -68 186 -49 0
-377 29 0
-377 -117 0
-377 94 0
-377 -85 0
-377 -33 0
377 -29 117 -94 85 33 0
-378 143 0
-378 -30 0
-378 117 0
-378 -142 0
-378 54 0
378 -143 30 -117 142 -54 0
-379 107 0
-379 5 0
-379 -23 0
-379 -58 0
-379 -65 0
379 -107 -5 23 58 65 0
-380 -149 0
-380 -18 0
-380 118 0
-380 24 0
-380 162 0
380 149 18 -118 -24 -162 0
376 377 378 379 380 0
-381 71 0
-381 63 0
-381 -10 0
-381 3 0
-381 95 0
381 -71 -63 10 -3 -95 0
-382 -117 0
-382 74 0
-382 -171 0
-382 145 0
-382 29 0
382 117 -74 171 -145 -29 0
-383 -91 0
-383 -97 0
-383 -83 0
-383 173 0
-383 -135 0
383 91 97 83 -173 135 0
-384 100 0
-384 -141 0
-384 179 0
-384 47 0
-384 174 0
384 -100 141 -179 -47 -174 0
-385 -106 0
-385 105 0
-385 71 0
-385 179 0
-385 -100 0
385 106 -105 -71 -179 100 0
381 382 383 384 385 0
-386 -166 0
-386 -125 0
-386 184 0
-386 158 0
-386 -46 0
386 166 125 -184 -158 46 0
-387 -182 0
-387 139 0
-387 -152 0
-387 -94 0
-387 7 0
387 182 -139 152 94 -7 0
-388 165 0
-388 -15 0
-388 109 0
-388 -189 0
-388 164 0
388 -165 15 -109 189 -164 0
-389 175 0
-389 57 0
-389 -186 0
-389 -147 0
-389 87 0
389 -175 -57 186 147 -87 0
-390 -122 0
-390 63 0
-390 110 0
-390 151 0
-390 159 0
390 122 -63 -110 -151 -159 0
386 387 388 389 390 0
-391 -62 0
-391 143 0
-391 -169 0
-391 117 0
-391 -142 0
391 62 -143 169 -117 142 0
-392 -33 0
-392 23 0
-392 -152 0
-392 -38 0
-392 -26 0
392 33 -23 152 38 26 0
-393 86 0
-393 -58 0
-393 148 0
-393 153 0
-393 17 0
393 -86 58 -148 -153 -17 0
-394 -5 0
-394 -124 0
-394 -44 0
-394 -24 0
-394 -105 0
394 5 124 44 24 105 0
-395 148 0
-395 9 0
-395 -141 0
-395 -134 0
-395 -71 0
395 -148 -9 141 134 71 0
391 392 393 394 395 0
-396 9 0
-396 150 0
-396 91 0
-396 79 0
-396 -32 0
396 -9 -150 -91 -79 32 0
-397 183 0
-397 -143 0
-397 -97 0
-397 -15 0
-397 126 0
397 -183 143 97 15 -126 0
-398 -10 0
-398 -109 0
-398 -66 0
-398 108 0
-398 131 0
398 10 109 66 -108 -131 0
-399 110 0
-399 -155 0
-399 56 0
-399 -53 0
-399 -114 0
399 -110 155 -56 53 114 0
-400 155 0
-400 -140 0
-400 63 0
-400 53 0
-400 -18 0
400 -155 140 -63 -53 18 0
396 397 398 399 400 0
-401 -98 0
-401 118 0
-401 133 0
-401 189 0
-401 -172 0
401 98 -118 -133 -189 172 0
-402 -161 0
-402 127 0
-402 -131 0
-402 47 0
-402 182 0
402 161 -127 131 -47 -182 0
-403 -137 0
-403 -148 0
-403 -35 0
-403 90 0
-403 176 0
403 137 148 35 -90 -176 0
-404 -114 0
-404 144 0
-404 -135 0
-404 -158 0
-404 100 0
404 114 -144 135 158 -100 0
-405 -32 0
-405 -33 0
-405 -129 0
-405 -43 0
-405 -40 0
405 32 33 129 43 40 0
401 402 403 404 405 0
-406 -99 0
-406 -52 0
-406 4 0
-406 -98 0
-406 -54 0
406 99 52 -4 98 54 0
-407 -38 0
-407 94 0
-407 83 0
-407 -28 0
-407 179 0
407 38 -94 -83 28 -179 0
-408 54 0
-408 148 0
-408 99 0
-408 142 0
-408 186 0
408 -54 -148 -99 -142 -186 0
-409 183 0
-409 -5 0
-409 -135 0
-409 41 0
-409 19 0
409 -183 5 135 -41 -19 0
-410 31 0
-410 59 0
-410 -88 0
-410 -111 0
-410 141 0
410 -31 -59 88 111 -141 0
406 407 408 409 410 0
-411 104 0
-411 60 0
-411 10 0
-411 177 0
-411 -99 0
411 -104 -60 -10 -177 99 0
-412 123 0
-412 171 0
-412 -124 0
-412 66 0
-412 157 0
412 -123 -171 124 -66 -157 0
-413 130 0
-413 -142 0
-413 147 0
-413 19 0
-413 -83 0
413 -130 142 -147 -19 83 0
-414 130 0
-414 -180 0
-414 175 0
-414 43 0
-414 39 0
414 -130 180 -175 -43 -39 0
-415 -136 0
-415 -140 0
-415 160 0
-415 174 0
-415 -63 0
415 136 140 -160 -174 63 0
411 412 413 414 415 0
-416 170 0
-416 -103 0
-416 57 0
-416 188 0
-416 139 0
416 -170 103 -57 -188 -139 0
-417 55 0
-417 -33 0
-417 -39 0
-417 28 0
-417 -71 0
417 -55 33 39 -28 71 0
-418 -130 0
-418 107 0
-418 157 0
-418 -13 0
-418 -26 0
418 130 -107 -157 13 26 0
-419 -176 0
-419 81 0
-419 112 0
-419 -147 0
-419 174 0
419 176 -81 -112 147 -174 0
-420 161 0
-420 127 0
-420 74 0
-420 -68 0
-420 91 0
420 -161 -127 -74 68 -91 0
416 417 418 419 420 0
-421 -99 0
-421 47 0
-421 -19 0
-421 -153 0
-421 165 0
421 99 -47 19 153 -165 0
-422 -129 0
-422 -141 0
-422 -125 0
-422 -114 0
-422 -9 0
422 129 141 125 114 9 0
-423 -32 0
-423 -169 0
-423 152 0
-423 48 0
-423 76 0
423 32 169 -152 -48 -76 0
-424 48 0
-424 137 0
-424 -104 0
-424 96 0
-424 -11 0
424 -48 -137 104 -96 11 0
-425 -78 0
-425 -97 0
-425 39 0
-425 -61 0
-425 165 0
425 78 97 -39 61 -165 0
421 422 423 424 425 0
-426 -73 0
-426 -161 0
-426 -82 0
-426 -22 0
-426 127 0
426 73 161 82 22 -127 0
-427 -157 0
-427 -128 0
-427 186 0
-427 158 0
-427 -126 0
427 157 128 -186 -158 126 0
-428 -144 0
-428 -112 0
-428 -121 0
-428 -164 0
-428 78 0
428 144 112 121 164 -78 0
-429 23 0
-429 70 0
-429 164 0
-429 -84 0
-429 132 0
429 -23 -70 -164 84 -132 0
-430 -54 0
-430 -71 0
-430 53 0
-430 162 0
-430 -124 0
430 54 71 -53 -162 124 0
426 427 428 429 430 0
